units           lj
atom_style      atomic

# pw359: LAMMPS requires the box to be set up before pair_write can be executed.

#region          box block 0 10 0 10 0 10
#create_box      2 box
read_data        "data.in"

pair_style      membrane/tail 2.0	# specify global cutoff
pair_coeff      1 1 1.5 3.0 2.5		# itype jtype epsilon wc rc 
pair_coeff      1 2 2.0 3.0 2.0		# itype jtype epsilon wc rc 
pair_coeff      2 2 2.5 1.0 1.5		# itype jtype epsilon wc rc 

pair_write      1 1  500 r 0.1 6 v11.tab LJ11
pair_write      1 2  500 r 0.1 6 v12.tab LJ12
pair_write      2 2  500 r 0.1 6 v22.tab LJ22

fix             1 all nve
dump            d1 all custom 100 dump id type x y z vx vy vz fx fy fz
run             0


